RAW/XY/fspd-mid/X-n139-k10.vrp_seed-1.out
11302	2.616	182.828
